Route #1:
Route #2: 19
Route #3: 5 25 14 15 22 28
Route #4: 24
Route #5: 4 18 31
Route #6: 27
Route #7: 13 21
Route #8: 16 29 10 9
Route #9: 30
Route #10: 12 26
Route #11: 11 8 23
Route #12: 1
Route #13: 6
Route #14: 17
Route #15: 20
Route #16: 2 3 7

Cost: 2140.8707574077507
